; DUP2 MLOAD PUSH cw_3 SWAP1 => PUSH cw_3 DUP3 MLOAD
(set-option :produce-proofs true)
; 
(set-info :status unknown)
(declare-fun storage_t ((_ BitVec 256) (_ BitVec 256) (_ BitVec 256) (_ BitVec 256) Int (_ BitVec 256)) (_ BitVec 256))
(declare-fun w_3 () (_ BitVec 256))
(declare-fun storage_s ((_ BitVec 256) (_ BitVec 256) (_ BitVec 256) (_ BitVec 256) Int (_ BitVec 256)) (_ BitVec 256))
(declare-fun exc_halt_t (Int) Bool)
(declare-fun exc_halt_s (Int) Bool)
(declare-fun sc_t (Int) (_ BitVec 6))
(declare-fun stack_t ((_ BitVec 256) (_ BitVec 256) (_ BitVec 256) (_ BitVec 256) Int (_ BitVec 6)) (_ BitVec 256))
(declare-fun stack_s ((_ BitVec 256) (_ BitVec 256) (_ BitVec 256) (_ BitVec 256) Int (_ BitVec 6)) (_ BitVec 256))
(declare-fun sc_s (Int) (_ BitVec 6))
(declare-fun used_gas_t ((_ BitVec 256) (_ BitVec 256) (_ BitVec 256) (_ BitVec 256) Int) Int)
(declare-fun used_gas_s ((_ BitVec 256) (_ BitVec 256) (_ BitVec 256) (_ BitVec 256) Int) Int)
(declare-fun f_MLOAD ((_ BitVec 256) (_ BitVec 256) (_ BitVec 256) (_ BitVec 256) (_ BitVec 256)) (_ BitVec 256))
(assert
 (exists ((x_0 (_ BitVec 256)) (x_1 (_ BitVec 256)) (x_MLOAD_0 (_ BitVec 256)) )(let (($x4976 (forall ((w (_ BitVec 256)) )(let ((?x6905 (storage_t x_0 x_1 w_3 x_MLOAD_0 3 w)))
 (let ((?x3950 (storage_s x_0 x_1 w_3 x_MLOAD_0 4 w)))
 (= ?x3950 ?x6905))))
 ))
 (let (($x10336 (exc_halt_t 3)))
 (let (($x64 (exc_halt_s 4)))
 (let (($x8692 (= $x64 $x10336)))
 (let (($x4046 (forall ((n (_ BitVec 6)) )(let ((?x2012 (sc_t 3)))
 (let (($x6243 (bvsle ?x2012 n)))
 (let ((?x7878 (stack_t x_0 x_1 w_3 x_MLOAD_0 3 n)))
 (let ((?x9117 (stack_s x_0 x_1 w_3 x_MLOAD_0 4 n)))
 (let (($x5930 (= ?x9117 ?x7878)))
 (or $x5930 $x6243)))))))
 ))
 (let ((?x2012 (sc_t 3)))
 (let ((?x4305 (sc_s 4)))
 (let (($x7720 (= ?x4305 ?x2012)))
 (let ((?x2022 (used_gas_t x_0 x_1 w_3 x_MLOAD_0 0)))
 (let ((?x4418 (used_gas_s x_0 x_1 w_3 x_MLOAD_0 0)))
 (let (($x1628 (= ?x4418 ?x2022)))
 (let (($x5941 (forall ((w (_ BitVec 256)) )(let ((?x8365 (storage_t x_0 x_1 w_3 x_MLOAD_0 0 w)))
 (let ((?x4122 (storage_s x_0 x_1 w_3 x_MLOAD_0 0 w)))
 (= ?x4122 ?x8365))))
 ))
 (let (($x56 (exc_halt_t 0)))
 (let (($x57 (exc_halt_s 0)))
 (let (($x58 (= $x57 $x56)))
 (let (($x1323 (forall ((n (_ BitVec 6)) )(let ((?x2990 (stack_t x_0 x_1 w_3 x_MLOAD_0 0 n)))
 (let ((?x15 (stack_s x_0 x_1 w_3 x_MLOAD_0 0 n)))
 (let (($x5245 (= ?x15 ?x2990)))
 (let ((?x63 (sc_t 0)))
 (let (($x1361 (bvsle ?x63 n)))
 (or $x1361 $x5245)))))))
 ))
 (let ((?x63 (sc_t 0)))
 (let ((?x72 (sc_s 0)))
 (let (($x73 (= ?x72 ?x63)))
 (let (($x7951 (= $x10336 (or (exc_halt_t 2) (not (bvsle (_ bv0 6) (bvadd (_ bv63 6) (sc_t 2))))))))
 (let (($x9417 (forall ((w (_ BitVec 256)) )(let ((?x4560 (storage_t x_0 x_1 w_3 x_MLOAD_0 2 w)))
 (let ((?x6905 (storage_t x_0 x_1 w_3 x_MLOAD_0 3 w)))
 (= ?x6905 ?x4560))))
 ))
 (let (($x5951 (forall ((n (_ BitVec 6)) )(let ((?x4056 (sc_t 2)))
 (let ((?x1438 (bvadd (_ bv63 6) ?x4056)))
 (let (($x10875 (bvsle ?x1438 n)))
 (let ((?x884 (stack_t x_0 x_1 w_3 x_MLOAD_0 2 n)))
 (let ((?x7878 (stack_t x_0 x_1 w_3 x_MLOAD_0 3 n)))
 (or (= ?x7878 ?x884) $x10875)))))))
 ))
 (let ((?x4056 (sc_t 2)))
 (let (($x9482 (= ?x2012 ?x4056)))
 (let (($x7815 (= (used_gas_t x_0 x_1 w_3 x_MLOAD_0 3) (+ 3 (used_gas_t x_0 x_1 w_3 x_MLOAD_0 2)))))
 (let ((?x1438 (bvadd (_ bv63 6) ?x4056)))
 (let ((?x4189 (stack_t x_0 x_1 w_3 x_MLOAD_0 2 ?x1438)))
 (let (($x1006 (= (stack_t x_0 x_1 w_3 x_MLOAD_0 3 (bvadd (_ bv63 6) ?x2012)) (f_MLOAD x_0 x_1 w_3 x_MLOAD_0 ?x4189))))
 (let (($x6851 (not (= ((_ extract 6 6) (bvadd (_ bv1 7) (concat (_ bv0 1) (sc_t 1)))) (_ bv0 1)))))
 (let (($x1920 (exc_halt_t 1)))
 (let (($x903 (exc_halt_t 2)))
 (let (($x9626 (forall ((w (_ BitVec 256)) )(let ((?x5076 (storage_t x_0 x_1 w_3 x_MLOAD_0 1 w)))
 (let ((?x4560 (storage_t x_0 x_1 w_3 x_MLOAD_0 2 w)))
 (= ?x4560 ?x5076))))
 ))
 (let (($x2349 (forall ((n (_ BitVec 6)) )(let ((?x1076 (stack_t x_0 x_1 w_3 x_MLOAD_0 1 n)))
 (let ((?x884 (stack_t x_0 x_1 w_3 x_MLOAD_0 2 n)))
 (or (bvsle (bvadd (_ bv61 6) (sc_t 1)) n) (= ?x884 ?x1076)))))
 ))
 (let (($x6523 (= ?x4056 (bvadd (_ bv1 6) (sc_t 1)))))
 (let ((?x4638 (used_gas_t x_0 x_1 w_3 x_MLOAD_0 2)))
 (let (($x19 (= (stack_t x_0 x_1 w_3 x_MLOAD_0 2 (bvadd (_ bv63 6) (sc_t 1))) (stack_t x_0 x_1 w_3 x_MLOAD_0 1 (bvadd (_ bv63 6) (sc_t 1))))))
 (let (($x8785 (= (stack_t x_0 x_1 w_3 x_MLOAD_0 2 (bvadd (_ bv62 6) (sc_t 1))) (stack_t x_0 x_1 w_3 x_MLOAD_0 1 (bvadd (_ bv62 6) (sc_t 1))))))
 (let ((?x4023 (sc_t 1)))
 (let ((?x2540 (bvadd (_ bv61 6) ?x4023)))
 (let ((?x6702 (stack_t x_0 x_1 w_3 x_MLOAD_0 1 ?x2540)))
 (let (($x3813 (= $x1920 (or $x56 (not (= ((_ extract 6 6) (bvadd (_ bv1 7) (concat (_ bv0 1) ?x63))) (_ bv0 1)))))))
 (let (($x9756 (forall ((w (_ BitVec 256)) )(let ((?x8365 (storage_t x_0 x_1 w_3 x_MLOAD_0 0 w)))
 (let ((?x5076 (storage_t x_0 x_1 w_3 x_MLOAD_0 1 w)))
 (= ?x5076 ?x8365))))
 ))
 (let (($x9769 (forall ((n (_ BitVec 6)) )(let ((?x2990 (stack_t x_0 x_1 w_3 x_MLOAD_0 0 n)))
 (let ((?x1076 (stack_t x_0 x_1 w_3 x_MLOAD_0 1 n)))
 (let ((?x63 (sc_t 0)))
 (let (($x1361 (bvsle ?x63 n)))
 (or $x1361 (= ?x1076 ?x2990)))))))
 ))
 (let (($x2669 (= ?x4023 (bvadd (_ bv1 6) ?x63))))
 (let (($x2731 (= $x64 (or (exc_halt_s 3) (not (bvsle (_ bv0 6) (bvadd (_ bv62 6) (sc_s 3))))))))
 (let (($x5802 (forall ((w (_ BitVec 256)) )(let ((?x8252 (storage_s x_0 x_1 w_3 x_MLOAD_0 3 w)))
 (let ((?x3950 (storage_s x_0 x_1 w_3 x_MLOAD_0 4 w)))
 (= ?x3950 ?x8252))))
 ))
 (let (($x4709 (forall ((n (_ BitVec 6)) )(let ((?x275 (sc_s 3)))
 (let ((?x11136 (bvadd (_ bv62 6) ?x275)))
 (let (($x6437 (bvsle ?x11136 n)))
 (let ((?x4239 (stack_s x_0 x_1 w_3 x_MLOAD_0 3 n)))
 (let ((?x9117 (stack_s x_0 x_1 w_3 x_MLOAD_0 4 n)))
 (or (= ?x9117 ?x4239) $x6437)))))))
 ))
 (let ((?x275 (sc_s 3)))
 (let (($x936 (= ?x4305 ?x275)))
 (let (($x9806 (= (used_gas_s x_0 x_1 w_3 x_MLOAD_0 4) (+ 3 (used_gas_s x_0 x_1 w_3 x_MLOAD_0 3)))))
 (let (($x4474 (= (stack_s x_0 x_1 w_3 x_MLOAD_0 4 (bvadd (_ bv62 6) ?x4305)) (stack_s x_0 x_1 w_3 x_MLOAD_0 3 (bvadd (_ bv63 6) ?x275)))))
 (let (($x5698 (= (stack_s x_0 x_1 w_3 x_MLOAD_0 4 (bvadd (_ bv63 6) ?x4305)) (stack_s x_0 x_1 w_3 x_MLOAD_0 3 (bvadd (_ bv62 6) ?x275)))))
 (let (($x11259 (not (= ((_ extract 6 6) (bvadd (_ bv1 7) (concat (_ bv0 1) (sc_s 2)))) (_ bv0 1)))))
 (let (($x247 (exc_halt_s 2)))
 (let (($x292 (exc_halt_s 3)))
 (let (($x6824 (= $x292 (or $x247 $x11259))))
 (let (($x5846 (forall ((w (_ BitVec 256)) )(let ((?x10064 (storage_s x_0 x_1 w_3 x_MLOAD_0 2 w)))
 (let ((?x8252 (storage_s x_0 x_1 w_3 x_MLOAD_0 3 w)))
 (= ?x8252 ?x10064))))
 ))
 (let (($x408 (forall ((n (_ BitVec 6)) )(let ((?x218 (sc_s 2)))
 (let (($x11339 (bvsle ?x218 n)))
 (let ((?x8086 (stack_s x_0 x_1 w_3 x_MLOAD_0 2 n)))
 (let ((?x4239 (stack_s x_0 x_1 w_3 x_MLOAD_0 3 n)))
 (or (= ?x4239 ?x8086) $x11339))))))
 ))
 (let (($x11338 (= ?x275 (bvadd (_ bv1 6) (sc_s 2)))))
 (let ((?x9483 (used_gas_s x_0 x_1 w_3 x_MLOAD_0 3)))
 (let (($x9992 (= $x247 (or (exc_halt_s 1) (not (bvsle (_ bv0 6) (bvadd (_ bv63 6) (sc_s 1))))))))
 (let (($x9882 (forall ((w (_ BitVec 256)) )(let ((?x8857 (storage_s x_0 x_1 w_3 x_MLOAD_0 1 w)))
 (let ((?x10064 (storage_s x_0 x_1 w_3 x_MLOAD_0 2 w)))
 (= ?x10064 ?x8857))))
 ))
 (let (($x5614 (forall ((n (_ BitVec 6)) )(let ((?x154 (sc_s 1)))
 (let ((?x11219 (bvadd (_ bv63 6) ?x154)))
 (let (($x5020 (bvsle ?x11219 n)))
 (let ((?x1429 (stack_s x_0 x_1 w_3 x_MLOAD_0 1 n)))
 (let ((?x8086 (stack_s x_0 x_1 w_3 x_MLOAD_0 2 n)))
 (or (= ?x8086 ?x1429) $x5020)))))))
 ))
 (let ((?x154 (sc_s 1)))
 (let ((?x218 (sc_s 2)))
 (let (($x5668 (= ?x218 ?x154)))
 (let ((?x4450 (used_gas_s x_0 x_1 w_3 x_MLOAD_0 2)))
 (let ((?x11219 (bvadd (_ bv63 6) ?x154)))
 (let ((?x9925 (stack_s x_0 x_1 w_3 x_MLOAD_0 1 ?x11219)))
 (let (($x9901 (= (stack_s x_0 x_1 w_3 x_MLOAD_0 2 (bvadd (_ bv63 6) ?x218)) (f_MLOAD x_0 x_1 w_3 x_MLOAD_0 ?x9925))))
 (let (($x11374 (not (= ((_ extract 6 6) (bvadd (_ bv1 7) (concat (_ bv0 1) ?x72))) (_ bv0 1)))))
 (let (($x189 (exc_halt_s 1)))
 (let (($x1383 (forall ((w (_ BitVec 256)) )(let ((?x4122 (storage_s x_0 x_1 w_3 x_MLOAD_0 0 w)))
 (let ((?x8857 (storage_s x_0 x_1 w_3 x_MLOAD_0 1 w)))
 (= ?x8857 ?x4122))))
 ))
 (let (($x663 (forall ((n (_ BitVec 6)) )(let ((?x15 (stack_s x_0 x_1 w_3 x_MLOAD_0 0 n)))
 (let ((?x1429 (stack_s x_0 x_1 w_3 x_MLOAD_0 1 n)))
 (or (= ?x1429 ?x15) (bvsle (bvadd (_ bv62 6) (sc_s 0)) n)))))
 ))
 (let (($x1901 (= ?x154 (bvadd (_ bv1 6) ?x72))))
 (let (($x6673 (= (stack_s x_0 x_1 w_3 x_MLOAD_0 1 (bvadd (_ bv63 6) ?x72)) (stack_s x_0 x_1 w_3 x_MLOAD_0 0 (bvadd (_ bv63 6) ?x72)))))
 (let ((?x8979 (bvadd (_ bv62 6) ?x72)))
 (let ((?x10049 (stack_s x_0 x_1 w_3 x_MLOAD_0 0 ?x8979)))
 (let (($x7825 (forall ((w0 (_ BitVec 256)) )(let (($x1340 (= (stack_s x_0 x_1 w_3 x_MLOAD_0 1 (bvadd (_ bv63 6) (sc_s 1))) w0)))
 (let ((?x5129 (f_MLOAD x_0 x_1 w_3 x_MLOAD_0 w0)))
 (= ?x5129 (ite $x1340 x_MLOAD_0 (_ bv0 256))))))
 ))
 (let (($x4960 (forall ((w (_ BitVec 256)) )(let ((?x4122 (storage_s x_0 x_1 w_3 x_MLOAD_0 0 w)))
 (= ?x4122 (_ bv0 256))))
 ))
 (let (($x7198 (= ?x4418 0)))
 (let (($x11411 (not $x57)))
 (let (($x1770 (= (stack_s x_0 x_1 w_3 x_MLOAD_0 0 (_ bv1 6)) x_1)))
 (let (($x672 (= (stack_s x_0 x_1 w_3 x_MLOAD_0 0 (_ bv0 6)) x_0)))
 (let (($x3907 (= ?x72 (_ bv2 6))))
 (and $x3907 $x672 $x1770 $x11411 $x7198 $x4960 $x7825 (= ?x9925 ?x10049) (= (stack_s x_0 x_1 w_3 x_MLOAD_0 1 ?x8979) ?x10049) $x6673 (= (used_gas_s x_0 x_1 w_3 x_MLOAD_0 1) (+ 3 ?x4418)) $x1901 $x663 $x1383 (= $x189 (or $x57 (not (bvsle (_ bv0 6) ?x8979)) $x11374)) $x9901 (= ?x4450 (+ 3 (used_gas_s x_0 x_1 w_3 x_MLOAD_0 1))) $x5668 $x5614 $x9882 $x9992 (= (stack_s x_0 x_1 w_3 x_MLOAD_0 3 ?x218) w_3) (= ?x9483 (+ 3 ?x4450)) $x11338 $x408 $x5846 $x6824 $x5698 $x4474 $x9806 $x936 $x4709 $x5802 $x2731 (= (stack_t x_0 x_1 w_3 x_MLOAD_0 1 ?x63) w_3) (= (used_gas_t x_0 x_1 w_3 x_MLOAD_0 1) (+ 3 ?x2022)) $x2669 $x9769 $x9756 $x3813 (= ?x4189 ?x6702) (= (stack_t x_0 x_1 w_3 x_MLOAD_0 2 ?x2540) ?x6702) $x8785 $x19 (= ?x4638 (+ 3 (used_gas_t x_0 x_1 w_3 x_MLOAD_0 1))) $x6523 $x2349 $x9626 (= $x903 (or $x1920 $x6851 (not (bvsle (_ bv0 6) ?x2540)))) $x1006 $x7815 $x9482 $x5951 $x9417 $x7951 $x73 $x1323 $x58 $x5941 $x1628 (not (and $x7720 $x4046 $x8692 $x4976)))))))))))))))))))))))))))))))))))))))))))))))))))))))))))))))))))))))))))))))))))))))))
 )
(check-sat)
(get-proof)
